# LogicTest: local local-opt local-parallel-stmts fakedist fakedist-opt fakedist-metadata

statement ok
GRANT USAGE ON DATABASE defaultdb TO public;
GRANT USAGE ON DATABASE test TO public;

query TT
SHOW DATABASES
----
defaultdb  root
postgres   root
system     node
test       root

query TTTTT
SHOW GRANTS ON DATABASE test
----
test  admin  admin     CREATE  YES
test  admin  admin     DROP    YES
test  admin  admin     USAGE   YES
test  admin  root      CREATE  YES
test  admin  root      DROP    YES
test  admin  root      USAGE   YES
test  root   public    USAGE   NO

statement ok
CREATE TABLE kv (
  k INT PRIMARY KEY,
  v INT
)

statement ok
INSERT INTO kv VALUES (1, 2), (3, 4), (5, 6), (7, 8)

query II rowsort
SELECT * FROM kv
----
1 2
3 4
5 6
7 8

statement ok
SET sql_safe_updates = TRUE;

statement error RENAME DATABASE on current database
ALTER DATABASE test RENAME TO u

statement ok
SET sql_safe_updates = FALSE;
 ALTER DATABASE test RENAME TO u

statement error pgcode 42P01 relation "kv" does not exist
SELECT * FROM kv

statement error database "test" does not exist
SHOW GRANTS ON DATABASE test

query TT
SHOW DATABASES
----
defaultdb  root
postgres   root
system     node
u          root

# check the name in descriptor is also changed
query TTTTT
SHOW GRANTS ON DATABASE u
----
u  admin  admin     CREATE  YES
u  admin  admin     DROP    YES
u  admin  admin     USAGE   YES
u  admin  root      CREATE  YES
u  admin  root      DROP    YES
u  admin  root      USAGE   YES
u  root   public    USAGE   NO

statement ok
SET DATABASE = u

query II rowsort
SELECT * FROM kv
----
1 2
3 4
5 6
7 8

statement error empty database name
ALTER DATABASE "" RENAME TO u

statement error empty database name
ALTER DATABASE u RENAME TO ""

statement ok
ALTER DATABASE u RENAME TO u

statement ok
CREATE DATABASE t

statement error the new database name "u" already exists
ALTER DATABASE t RENAME TO u

statement ok
GRANT ALL ON DATABASE t TO testuser

user testuser

statement error pq: only users with the admin role are allowed to ALTER DATABASE ... RENAME
ALTER DATABASE t RENAME TO v

query TT
SHOW DATABASES
----
defaultdb  root
t          root
u          root

user root

# Test that renames aren't allowed while views refer to any of a DB's tables,
# both for views in that database and for views in a different database.

statement ok
CREATE VIEW t.v AS SELECT k,v FROM u.kv

query TT
SHOW TABLES FROM u
----
kv  root

statement error cannot rename database because view "t.public.v" depends on table "kv"
ALTER DATABASE u RENAME TO v

statement ok
DROP VIEW t.v

statement ok
ALTER DATABASE u RENAME TO v

statement ok
CREATE VIEW v.v AS SELECT k,v FROM v.kv

statement error cannot rename database because view "v" depends on table "kv"
ALTER DATABASE v RENAME TO u

# Check that the default databases can be renamed like any other.
statement ok
ALTER DATABASE defaultdb RENAME TO w;
  ALTER DATABASE postgres RENAME TO defaultdb;
  ALTER DATABASE w RENAME TO postgres

query TT
SHOW DATABASES
----
defaultdb  root
postgres   root
system     node
t          root
v          root

query TTT
EXPLAIN ALTER DATABASE v RENAME TO x
----
rename database  ·  ·

# Verify that the EXPLAIN above does not actually rename the database (#30543)
query TT colnames
SHOW DATABASES
----
database_name  owner
defaultdb      root
postgres       root
system         node
t              root
v              root
